33D32945 STP File, STP Format Version 1.0

SECTION Comments
Name "cube_n10_d4_s31"
Problem "Euclidean Steiner Tree Problem"
Remark "Generated with STPGenerator. 4 dimensions."
END

SECTION Graph
Nodes 10
END

SECTION Coordinates
DDDD 0 0.5921190123 0.7871168474 0.8626960571 0.4022940902
DDDD 1 0.4331044440 0.3224785879 0.1665347033 0.6197118892
DDDD 2 0.4428926201 0.5949672445 0.2624237846 0.4864085733
DDDD 3 0.4051467089 0.0680107870 0.7012902786 0.2066657628
DDDD 4 0.0859796964 0.6465744323 0.9411502084 0.4651792224
DDDD 5 0.1887814688 0.3742742359 0.7257872944 0.9398560226
DDDD 6 0.0504484792 0.7854848689 0.4252954514 0.4809464605
DDDD 7 0.2813506742 0.1364504407 0.0017597149 0.8734696870
DDDD 8 0.9235672881 0.8644557720 0.2757637767 0.3566717321
DDDD 9 0.1869343599 0.4422984800 0.9763836213 0.6298269800
END
